letting initialStacks = [12, 27, 45, 20, 11, 30, 38, 32, 4, 43, 5, 15, 6, 28, 34, 16, 41, 17, 25, 40, 8, 2, 23, 7, 26, 35, 22, 42, 18, 3, 44, 33, 9, 13, 47, 46, 24, 14, 50, 1, 21, 31, 19, 48, 10, 39, 49, 37, 51, 29, 36]
